
List of user-set options:

                                    Name   Value                used
                           compl_inf_tol = 1                     yes
                         constr_viol_tol = 1                     yes
                            dual_inf_tol = 1000                  yes
                           linear_solver = ma97                  yes
                              ma86_small = 1e-30                  no
                                  ma86_u = 0.0001                 no
                              ma97_order = best                  yes
                              ma97_small = 1e-30                 yes
                            ma97_switch1 = at_start              yes
                            ma97_switch2 = od_hd_reuse           yes
                                  ma97_u = 1e-06                 yes
                               ma97_umax = 0.5                   yes
                                max_iter = 1000                  yes
                    max_refinement_steps = 20                    yes
                    min_refinement_steps = 5                     yes
                                 mu_init = 1e-06                 yes
           mu_superlinear_decrease_power = 1.25                  yes
                   nlp_scaling_min_value = 1e-08                 yes
                        option_file_name = Preset_Case_732_pf.opt  yes
                             output_file = ./tmp/Preset_Case_732_pf.output  yes
                      print_user_options = yes                   yes
        required_infeasibility_reduction = 1                      no
                                     tol = 1e-08                 yes
                   warm_start_bound_frac = 1e-20                 yes
                   warm_start_bound_push = 1e-20                 yes
                   warm_start_init_point = yes                   yes
              warm_start_mult_bound_push = 1e-20                 yes
                warm_start_mult_init_max = 1e+40                 yes
             warm_start_slack_bound_frac = 1e-20                 yes
             warm_start_slack_bound_push = 1e-20                 yes

******************************************************************************
This program contains Ipopt, a library for large-scale nonlinear optimization.
 Ipopt is released as open source code under the Eclipse Public License (EPL).
         For more information visit http://projects.coin-or.org/Ipopt
******************************************************************************

This is Ipopt version 3.12.10, running with linear solver ma97.

Number of nonzeros in equality constraint Jacobian...:   123443
Number of nonzeros in inequality constraint Jacobian.:      213
Number of nonzeros in Lagrangian Hessian.............:    49069

Total number of variables............................:    31591
                     variables with only lower bounds:    12912
                variables with lower and upper bounds:    15130
                     variables with only upper bounds:        0
Total number of equality constraints.................:    31483
Total number of inequality constraints...............:       25
        inequality constraints with only lower bounds:        4
   inequality constraints with lower and upper bounds:        0
        inequality constraints with only upper bounds:       21

iter    objective    inf_pr   inf_du lg(mu)  ||d||  lg(rg) alpha_du alpha_pr  ls
   0 -5.3123291e+00 4.83e-03 1.02e+00  -6.0 0.00e+00    -  0.00e+00 0.00e+00   0
   1 -5.3118095e+00 1.54e+00 1.21e+01  -6.0 4.27e+05    -  7.36e-05 4.47e-04h  2
   2 -5.3118755e+00 1.54e+00 5.23e+01  -6.0 3.69e+01  -4.0 2.26e-01 5.89e-04h  1
   3 -5.6338977e+00 1.81e+01 2.21e+03  -6.0 7.24e+03    -  5.66e-02 3.95e-01h  1
   4 -5.6560222e+00 1.74e+01 2.11e+03  -6.0 2.32e+03    -  2.59e-02 4.77e-02h  1
   5 -5.8217754e+00 1.98e+01 1.79e+03  -6.0 2.12e+03    -  1.16e-01 3.79e-01h  1
   6 -5.8660132e+00 1.64e+01 1.51e+03  -6.0 8.82e+02    -  3.99e-01 1.89e-01h  1
   7 -5.8833183e+00 1.48e+01 1.39e+03  -6.0 8.80e+02    -  3.71e-01 9.48e-02h  1
   8 -6.0089138e+00 1.32e+01 3.48e+03  -6.0 9.39e+02    -  5.03e-01 9.18e-01h  1
   9 -5.9880210e+00 9.04e+00 8.22e+03  -6.0 6.56e+01  -4.5 5.48e-02 3.18e-01h  1
iter    objective    inf_pr   inf_du lg(mu)  ||d||  lg(rg) alpha_du alpha_pr  ls
  10 -5.9485192e+00 2.49e-02 1.65e+04  -6.0 6.87e+00  -5.0 3.71e-01 1.00e+00h  1
  11 -5.9492241e+00 2.09e-02 1.24e+04  -6.0 4.76e+00  -5.4 5.18e-01 1.70e-01h  1
  12 -5.9543633e+00 1.32e-02 2.27e+04  -6.0 1.30e+01  -5.9 6.65e-01 1.00e+00h  1
  13 -5.9567629e+00 1.27e-02 7.02e+04  -6.0 3.62e+01  -6.4 9.74e-02 2.58e-01h  1
  14 -5.9610399e+00 2.67e+00 1.31e+01  -6.0 6.61e+01  -6.9 2.56e-01 2.23e-01h  1
  15r-5.9610399e+00 2.67e+00 1.00e+03   0.1 0.00e+00  -7.3 0.00e+00 2.12e-07R  2
  16r-5.9627320e+00 2.66e+00 1.00e+03   0.1 1.03e+04    -  6.65e-06 1.60e-06f  1
  17 -5.9625027e+00 2.33e+00 8.77e+04  -6.0 3.14e-01    -  1.80e-01 1.26e-01h  1
  18 -5.9621373e+00 1.79e+00 3.11e+05  -6.0 2.70e-01    -  1.26e-01 2.31e-01h  1
  19 -5.9609796e+00 1.87e-03 4.92e+01  -6.0 2.03e-01    -  7.49e-01 1.00e+00h  1
iter    objective    inf_pr   inf_du lg(mu)  ||d||  lg(rg) alpha_du alpha_pr  ls
  20 -5.9618999e+00 1.15e-04 1.46e+01  -6.0 6.15e-01    -  8.96e-01 1.00e+00h  1
  21 -5.9664475e+00 3.56e-02 2.96e+00  -6.0 6.45e+00    -  8.09e-01 9.80e-01h  1
  22 -5.9693108e+00 4.77e-01 3.76e+01  -6.0 2.07e+01    -  7.36e-01 1.00e+00f  1
  23 -5.9739873e+00 8.88e-01 7.30e+00  -6.0 3.35e+01    -  8.55e-01 7.05e-01h  1
  24 -5.9816118e+00 7.31e-01 2.27e+01  -6.0 1.55e+02    -  8.33e-01 1.00e+00h  1
  25 -5.9826930e+00 7.49e-01 1.99e+01  -6.0 7.32e+02    -  2.17e-01 6.33e-02h  1
  26 -5.9856137e+00 1.12e+00 3.13e+01  -6.0 3.79e+02  -7.8 2.99e-01 3.95e-01h  1
  27 -5.9907119e+00 3.85e+00 1.91e+03  -6.0 9.19e+02  -7.4 7.04e-02 4.89e-01h  1
  28 -5.9998907e+00 3.97e-01 3.21e+02  -6.0 1.17e+02  -7.0 1.64e-01 1.00e+00h  1
  29 -6.0095212e+00 1.30e+00 2.05e+02  -6.0 5.54e+02  -7.4 3.30e-01 3.40e-01h  1
iter    objective    inf_pr   inf_du lg(mu)  ||d||  lg(rg) alpha_du alpha_pr  ls
  30 -6.0492234e+00 7.29e+00 2.63e+04  -6.0 2.48e+03    -  2.49e-01 6.26e-01h  1
  31 -6.0515159e+00 6.68e+00 2.99e+04  -6.0 8.14e+02    -  3.78e-01 8.75e-02h  1
  32 -6.0565444e+00 5.51e+01 6.93e+04  -6.0 2.80e+03    -  3.35e-02 6.32e-01h  1
  33 -6.0551710e+00 5.28e+01 1.15e+05  -6.0 2.58e+03    -  4.66e-01 4.60e-02h  1
  34 -6.0528482e+00 4.72e+01 2.87e+05  -6.0 9.63e+02    -  9.10e-03 1.10e-01h  3
  35 -6.0589859e+00 4.16e+01 1.27e+05  -6.0 1.99e+03    -  6.55e-02 4.32e-01h  1
  36 -6.0534266e+00 2.90e+01 4.84e+05  -6.0 1.27e+03    -  1.27e-01 6.21e-01h  1
  37 -6.0541546e+00 2.83e+01 1.93e+05  -6.0 6.30e+02    -  2.12e-01 2.30e-02h  1
  38r-6.0541546e+00 2.83e+01 1.00e+03   1.3 0.00e+00    -  0.00e+00 3.75e-08R  2
  39r-6.0643111e+00 2.83e+01 1.00e+03   1.3 8.36e+04    -  1.55e-07 1.17e-07f  1
iter    objective    inf_pr   inf_du lg(mu)  ||d||  lg(rg) alpha_du alpha_pr  ls
  40 -6.0640569e+00 2.75e+01 9.42e+03  -6.0 1.14e+01    -  3.00e-06 2.82e-02h  1
  41 -6.0634485e+00 2.56e+01 8.78e+03  -6.0 1.49e+01    -  4.19e-02 6.82e-02h  1
  42 -6.0624199e+00 2.26e+01 7.75e+03  -6.0 1.39e+01    -  1.95e-01 1.18e-01h  1
  43 -6.0592040e+00 1.38e+01 4.74e+03  -6.0 1.23e+01    -  4.43e-01 3.88e-01h  1
  44 -6.0535704e+00 1.21e+00 4.18e+02  -6.0 7.59e+00    -  8.39e-01 9.12e-01h  1
  45 -6.0534608e+00 1.02e+00 3.51e+02  -6.0 1.27e+00    -  9.78e-01 1.61e-01h  1
  46 -6.0544126e+00 4.89e-02 5.47e+01  -6.0 3.43e+01  -6.1 9.48e-01 1.00e+00h  1
  47 -6.0658421e+00 5.11e+00 1.53e+01  -6.0 4.92e+02    -  8.24e-01 1.00e+00h  1
  48 -6.0780604e+00 3.88e+01 1.29e+02  -6.0 1.75e+03    -  4.47e-01 7.73e-01h  1
  49 -6.0787648e+00 2.28e+01 1.74e+04  -6.0 4.81e+02    -  8.46e-04 4.29e-01h  1
iter    objective    inf_pr   inf_du lg(mu)  ||d||  lg(rg) alpha_du alpha_pr  ls
  50 -6.0819226e+00 2.03e+00 2.22e+02  -6.0 3.51e+02    -  1.06e-01 1.00e+00h  1
  51 -6.0810753e+00 3.38e-02 1.03e+01  -6.0 6.29e+01  -6.6 1.64e-01 1.00e+00h  1
  52 -6.0877985e+00 3.85e-01 2.98e+02  -6.0 2.48e+02  -7.1 5.64e-01 1.00e+00h  1
  53 -6.1254096e+00 2.89e+00 2.54e+03  -6.0 2.81e+03    -  1.54e-01 3.93e-01h  1
  54 -6.1334388e+00 2.77e+00 1.14e+03  -6.0 1.58e+03    -  1.09e-03 3.19e-01h  1
  55 -6.1316176e+00 2.43e+00 9.97e+02  -6.0 1.53e+03    -  2.37e-02 1.25e-01h  4
  56 -6.1335119e+00 1.51e+00 1.59e+02  -6.0 4.11e+02    -  8.06e-01 7.14e-01h  1
  57 -6.1339811e+00 1.50e+00 1.58e+02  -6.0 1.69e+03    -  1.31e-01 1.11e-02h  1
  58 -6.1327936e+00 3.33e-01 3.66e+01  -6.0 3.91e+02    -  3.44e-01 1.00e+00h  1
  59 -6.1412707e+00 1.13e+01 1.01e+03  -6.0 8.99e+03  -7.5 4.15e-02 3.54e-02h  1
iter    objective    inf_pr   inf_du lg(mu)  ||d||  lg(rg) alpha_du alpha_pr  ls
  60 -6.1453717e+00 9.69e+00 9.08e+02  -6.0 9.41e+02    -  6.95e-01 1.58e-01h  1
  61 -6.1494996e+00 7.49e+00 7.71e+02  -6.0 7.19e+02    -  9.03e-01 2.53e-01h  1
  62 -6.1543034e+00 3.51e-01 1.51e+02  -6.0 5.30e+02    -  1.00e+00 1.00e+00h  1
  63 -6.1506355e+00 2.30e-02 1.06e+01  -6.0 1.21e+02    -  1.00e+00 9.73e-01h  1
  64 -6.1502960e+00 1.50e-05 4.60e-03  -6.0 3.11e+00    -  1.00e+00 1.00e+00h  1
  65 -6.1502957e+00 3.81e-07 2.18e-05  -6.0 9.62e-02    -  1.00e+00 1.00e+00h  1
  66 -6.1502957e+00 2.83e-10 1.11e-08  -6.0 2.16e-03    -  1.00e+00 1.00e+00h  1
  67 -6.1503670e+00 3.61e-03 5.05e+01  -7.5 4.46e+01    -  9.57e-01 7.82e-01h  1
  68 -6.1503699e+00 6.35e-04 7.06e+00  -7.5 1.01e+01    -  1.00e+00 8.88e-01h  1
  69 -6.1503693e+00 3.71e-06 1.09e-02  -7.5 1.13e+00    -  1.00e+00 1.00e+00h  1
iter    objective    inf_pr   inf_du lg(mu)  ||d||  lg(rg) alpha_du alpha_pr  ls
  70 -6.1503693e+00 2.84e-10 5.00e-09  -7.5 1.54e-03    -  1.00e+00 1.00e+00h  1
  71 -6.1503708e+00 4.36e-06 6.89e-01  -9.0 1.44e+00    -  9.22e-01 8.47e-01h  1
  72 -6.1503711e+00 1.44e-07 2.50e-04  -9.0 2.21e-01    -  1.00e+00 1.00e+00f  1
  73 -6.1503711e+00 2.88e-10 2.86e-09  -9.0 3.86e-05    -  1.00e+00 1.00e+00h  1

Number of Iterations....: 73

                                   (scaled)                 (unscaled)
Objective...............:  -4.8049773921810539e+00   -6.1503710619917493e+00
Dual infeasibility......:   2.8559883566269356e-09    3.6556650964824779e-09
Constraint violation....:   2.8751644587290265e-10    2.8751644587290265e-10
Complementarity.........:   1.1781506670612361e-09    1.5080328538383822e-09
Overall NLP error.......:   2.8559883566269356e-09    3.6556650964824779e-09


Number of objective function evaluations             = 89
Number of objective gradient evaluations             = 74
Number of equality constraint evaluations            = 89
Number of inequality constraint evaluations          = 89
Number of equality constraint Jacobian evaluations   = 76
Number of inequality constraint Jacobian evaluations = 76
Number of Lagrangian Hessian evaluations             = 73
Total CPU secs in IPOPT (w/o function evaluations)   =    119.313
Total CPU secs in NLP function evaluations           =      2.569

EXIT: Optimal Solution Found.
